NAME          TestProblem
ROWS
 N  COST
 E  ROW1
 E  ROW2
 E  ROW3
 E  ROW4
COLUMNS
    x1        COST                  -1
    x1        ROW1                   1
    x1        ROW2                  -1
    x1        ROW3                   2
    x1        ROW4                  -0.6667
    x2        COST                   3
    x2        ROW1                  -2
    x2        ROW2                   1
    x2        ROW3                  -1
    x2        ROW4                   0.6667
    x3        COST                   1
    x3        ROW1                   1
    x3        ROW2                   2
    x3        ROW3                  -1
    x3        ROW4                   1.3333
    x4        COST                  -2
    x4        ROW1                   3
    x4        ROW2                  -1
    x4        ROW3                  -2
    x4        ROW4                  -0.6667
    x5        COST                  -1
    x5        ROW1                  -2
    x6        ROW2                  -3
    x6        ROW4                  -2
RHS
    RHS1       ROW1                   3
    RHS1       ROW2                   7
    RHS1       ROW3                  10
    RHS1       ROW4                  4.666
BOUNDS
 LO BND1      x1         0
 LO BND1      x2         0
 LO BND1      x3         0
 LO BND1      x4         0
 LO BND1      x5         0
 LO BND1      x6         0
ENDATA